60
2 0 6
2 1 6
3 2 5
4 1 2
4 3 1
5 0 5
5 2 4
5 4 1
6 1 4
6 4 3
7 1 6
7 2 2
7 5 1
7 6 6
8 3 4
8 6 6
8 7 4
9 0 6
9 5 1
9 6 5
9 7 1
9 8 2
10 2 4
10 9 4
11 1 1
11 5 3
11 7 2
11 10 1
12 0 5
12 2 2
12 3 2
12 4 2
12 5 5
12 9 6
12 10 1
12 11 1
13 1 4
13 5 2
13 6 1
13 7 1
13 9 6
13 12 4
14 0 3
14 1 4
14 3 4
14 8 2
14 9 6
14 11 1
14 12 5
15 1 3
15 2 4
15 3 6
15 9 3
15 10 2
15 11 4
15 12 6
15 14 4
16 3 6
16 4 4
16 6 6
16 7 2
16 8 3
16 9 3
16 10 2
16 12 3
16 15 2
17 0 2
17 3 1
17 4 5
17 10 2
17 11 4
17 13 2
17 16 3
18 1 6
18 3 6
18 5 6
18 7 6
18 8 5
18 10 2
18 13 3
19 1 1
19 3 3
19 4 1
19 5 4
19 6 1
19 8 6
19 10 3
19 15 1
19 16 3
19 17 6
19 18 5
20 0 4
20 3 3
20 4 1
20 5 1
20 7 3
20 8 6
20 9 1
20 10 4
20 13 4
20 15 2
20 17 1
21 1 2
21 7 5
21 9 3
21 10 6
21 11 3
21 12 2
21 15 3
21 17 4
22 1 2
22 3 2
22 5 3
22 9 1
22 14 2
22 15 6
22 16 2
22 17 2
22 20 1
23 3 4
23 5 4
23 6 2
23 7 3
23 8 5
23 9 1
23 10 5
23 14 2
23 15 2
23 19 5
23 20 5
23 21 2
24 3 6
24 6 6
24 7 1
24 8 2
24 9 5
24 10 5
24 11 6
24 14 3
24 16 3
24 17 2
24 19 2
25 2 3
25 3 2
25 4 2
25 6 5
25 7 2
25 8 2
25 9 6
25 16 2
25 18 3
25 19 3
25 20 6
25 21 1
25 23 3
25 24 2
26 3 2
26 5 1
26 9 2
26 10 6
26 11 5
26 14 5
26 16 2
26 18 2
26 21 2
26 22 2
26 24 2
26 25 6
27 0 1
27 2 2
27 4 1
27 5 1
27 6 4
27 8 3
27 12 6
27 13 5
27 15 6
27 18 4
27 19 3
27 24 2
27 26 2
28 0 1
28 1 6
28 2 6
28 6 4
28 7 3
28 10 1
28 11 5
28 13 2
28 14 1
28 16 1
28 17 6
28 20 4
28 21 4
28 22 5
28 26 6
28 27 5
29 4 3
29 6 3
29 9 2
29 10 3
29 11 1
29 13 5
29 14 2
29 16 6
29 17 2
29 21 1
29 23 4
29 24 5
29 27 6
30 0 4
30 2 6
30 6 5
30 7 6
30 10 1
30 11 4
30 13 2
30 15 1
30 18 4
30 20 1
30 22 2
30 23 6
30 24 1
30 25 5
30 28 6
31 1 4
31 4 3
31 5 3
31 6 6
31 8 1
31 10 6
31 11 4
31 13 2
31 14 1
31 15 3
31 18 4
31 20 1
31 23 3
31 24 6
31 25 6
31 27 1
31 30 2
32 2 4
32 3 5
32 4 3
32 7 4
32 9 1
32 10 1
32 11 6
32 13 5
32 14 6
32 17 2
32 18 1
32 23 4
32 25 4
32 28 6
32 30 6
33 0 5
33 1 3
33 6 3
33 8 6
33 9 1
33 11 5
33 14 3
33 15 1
33 17 4
33 21 4
33 22 3
33 23 3
34 3 6
34 6 3
34 7 4
34 8 2
34 9 1
34 13 4
34 14 5
34 16 2
34 19 5
34 20 4
34 23 1
34 27 1
34 28 2
34 29 4
34 30 6
34 32 4
35 0 1
35 1 2
35 5 2
35 6 1
35 15 1
35 16 5
35 17 2
35 18 2
35 19 6
35 20 3
35 23 6
35 24 1
35 25 2
35 26 2
35 27 2
35 28 4
35 30 1
35 31 6
35 32 6
35 33 3
36 3 1
36 4 3
36 9 1
36 10 1
36 11 4
36 12 5
36 14 3
36 17 5
36 18 2
36 19 4
36 20 2
36 25 1
36 28 6
36 29 1
36 30 3
36 32 5
36 35 4
37 5 5
37 6 3
37 8 6
37 9 3
37 10 4
37 11 4
37 12 3
37 13 3
37 15 3
37 16 2
37 17 3
37 18 3
37 22 4
37 23 4
37 26 5
37 29 4
37 33 6
37 34 4
38 0 5
38 2 2
38 3 4
38 4 5
38 8 2
38 9 3
38 10 2
38 12 4
38 13 4
38 15 2
38 16 4
38 20 2
38 23 3
38 25 6
38 27 2
38 28 1
38 29 1
38 32 3
38 33 4
38 35 1
39 0 3
39 1 4
39 2 4
39 5 3
39 7 2
39 8 2
39 9 4
39 13 4
39 14 6
39 15 2
39 16 5
39 17 6
39 18 6
39 19 2
39 21 2
39 22 2
39 23 3
39 24 1
39 26 5
39 29 1
39 31 5
39 34 3
39 36 4
40 1 5
40 3 4
40 5 5
40 6 4
40 7 6
40 8 3
40 9 1
40 10 6
40 12 1
40 14 2
40 16 4
40 17 2
40 18 5
40 19 5
40 24 6
40 26 5
40 29 5
40 30 6
40 31 5
40 33 4
40 34 3
40 37 1
40 39 4
41 0 5
41 1 2
41 3 3
41 6 4
41 7 5
41 8 3
41 10 4
41 12 3
41 13 5
41 18 5
41 19 1
41 20 2
41 21 6
41 22 6
41 24 1
41 27 6
41 28 1
41 30 5
41 31 1
41 32 5
41 33 1
41 34 6
41 38 3
41 39 5
41 40 6
42 0 4
42 1 2
42 2 2
42 4 6
42 10 5
42 11 2
42 13 3
42 16 3
42 18 5
42 21 6
42 24 4
42 27 5
42 30 6
42 31 2
42 32 3
42 34 2
42 36 4
42 39 3
42 40 1
43 0 1
43 1 5
43 5 1
43 6 3
43 7 2
43 8 4
43 10 2
43 11 4
43 12 3
43 20 6
43 22 4
43 24 5
43 25 1
43 27 3
43 28 1
43 30 5
43 31 6
43 32 4
43 33 5
43 35 6
43 37 3
43 39 3
43 41 4
43 42 6
44 0 4
44 1 4
44 2 3
44 4 4
44 9 6
44 11 1
44 13 1
44 14 4
44 15 4
44 16 4
44 23 5
44 24 6
44 25 2
44 27 3
44 29 4
44 30 5
44 31 6
44 32 1
44 33 1
44 34 6
44 36 1
44 40 2
44 41 3
44 42 4
44 43 3
45 0 3
45 4 3
45 5 4
45 6 3
45 7 4
45 12 1
45 13 5
45 14 1
45 15 3
45 16 1
45 22 2
45 23 3
45 25 5
45 26 3
45 27 4
45 29 5
45 31 4
45 32 3
45 37 5
45 38 6
45 39 2
45 41 1
45 42 5
45 43 6
46 1 5
46 2 2
46 3 4
46 5 4
46 7 3
46 9 1
46 10 3
46 11 4
46 12 1
46 21 1
46 26 1
46 27 1
46 28 3
46 33 4
46 34 6
46 37 5
46 38 3
46 41 6
46 42 4
46 43 4
46 45 1
47 1 5
47 2 5
47 3 6
47 4 5
47 6 3
47 10 1
47 11 6
47 13 3
47 14 5
47 17 6
47 18 2
47 21 6
47 22 1
47 23 4
47 24 4
47 25 2
47 27 5
47 28 4
47 29 5
47 31 5
47 36 5
47 37 3
47 39 5
47 41 6
47 43 3
47 45 1
47 46 4
48 0 1
48 2 1
48 3 1
48 11 2
48 12 3
48 13 1
48 14 2
48 15 2
48 16 5
48 17 1
48 18 1
48 19 3
48 20 1
48 22 3
48 23 1
48 25 1
48 26 5
48 27 2
48 28 1
48 31 2
48 32 2
48 33 2
48 34 2
48 35 6
48 36 4
48 37 3
48 40 4
48 41 5
48 44 2
48 45 1
49 0 4
49 1 1
49 2 5
49 3 2
49 5 3
49 10 3
49 11 3
49 12 6
49 15 2
49 20 1
49 22 2
49 23 6
49 25 3
49 26 5
49 28 5
49 31 5
49 32 2
49 34 1
49 35 4
49 36 1
49 37 4
49 39 3
49 40 5
49 41 3
49 45 4
49 47 5
49 48 4
50 2 4
50 3 6
50 5 4
50 7 3
50 8 2
50 10 3
50 12 6
50 17 5
50 18 1
50 22 5
50 26 3
50 29 2
50 30 1
50 31 6
50 33 1
50 35 2
50 36 4
50 38 6
50 39 5
50 42 1
50 44 4
50 47 2
50 48 4
51 1 6
51 2 2
51 8 3
51 10 2
51 11 6
51 13 6
51 14 4
51 17 4
51 19 4
51 20 3
51 22 3
51 23 3
51 27 4
51 28 6
51 30 1
51 31 4
51 33 1
51 35 1
51 36 1
51 37 4
51 38 4
51 41 5
51 42 2
51 45 2
51 46 1
51 47 2
52 3 4
52 10 2
52 14 2
52 16 3
52 17 3
52 22 4
52 26 4
52 29 1
52 31 6
52 32 3
52 34 6
52 36 3
52 39 1
52 40 1
52 42 1
52 43 6
52 45 3
52 47 4
52 49 6
52 50 5
52 51 5
53 1 2
53 3 5
53 4 2
53 5 6
53 6 1
53 8 1
53 11 1
53 13 2
53 14 3
53 16 4
53 18 1
53 19 4
53 21 5
53 23 5
53 24 1
53 27 5
53 29 4
53 31 1
53 32 2
53 35 5
53 36 5
53 38 3
53 39 3
53 41 4
53 42 2
53 43 3
53 46 3
53 50 2
53 51 4
53 52 3
54 1 5
54 2 4
54 4 5
54 6 2
54 9 1
54 12 1
54 13 2
54 15 6
54 16 3
54 17 5
54 20 6
54 23 2
54 25 2
54 26 1
54 27 2
54 28 3
54 29 5
54 32 6
54 34 1
54 35 5
54 36 2
54 38 2
54 39 4
54 40 5
54 45 4
54 46 3
54 48 3
54 51 5
54 52 4
54 53 4
55 1 2
55 4 5
55 5 5
55 6 2
55 10 3
55 14 6
55 15 2
55 16 2
55 17 4
55 19 4
55 20 1
55 21 2
55 22 5
55 23 4
55 25 4
55 27 6
55 34 3
55 36 3
55 37 3
55 38 1
55 39 5
55 40 5
55 41 2
55 43 2
55 47 5
55 50 4
55 51 1
55 52 4
55 54 5
56 2 2
56 3 4
56 4 4
56 5 6
56 8 4
56 9 3
56 12 6
56 20 2
56 22 1
56 23 3
56 27 5
56 29 1
56 32 5
56 34 3
56 37 1
56 41 1
56 42 1
56 43 2
56 45 4
56 48 2
56 54 1
56 55 6
57 0 5
57 2 4
57 3 6
57 5 5
57 9 4
57 13 1
57 14 6
57 15 2
57 16 1
57 17 2
57 18 3
57 19 2
57 20 3
57 21 2
57 24 6
57 25 2
57 27 1
57 30 6
57 33 5
57 34 2
57 37 1
57 40 2
57 42 6
57 45 1
57 46 6
57 49 6
57 50 3
57 51 3
57 52 1
57 53 1
57 54 3
57 55 1
57 56 2
58 0 6
58 2 4
58 3 4
58 14 3
58 15 6
58 17 4
58 19 4
58 20 6
58 21 5
58 22 5
58 23 4
58 25 1
58 26 4
58 27 3
58 28 6
58 34 1
58 36 5
58 38 6
58 41 5
58 43 5
58 44 6
58 45 5
58 46 5
58 47 5
58 48 4
58 49 3
58 50 4
58 53 4
58 54 2
58 57 6
59 1 1
59 2 6
59 5 3
59 6 6
59 7 5
59 10 1
59 12 1
59 13 5
59 14 1
59 15 4
59 16 6
59 18 4
59 19 1
59 20 4
59 24 2
59 25 5
59 26 6
59 27 3
59 28 3
59 29 3
59 32 4
59 33 5
59 37 5
59 38 1
59 41 2
59 42 1
59 43 6
59 44 6
59 46 5
59 51 4
59 53 4
59 54 2
59 55 6
59 57 1
